RT is False
Default write of storage_offers_DA.csv just to have a file (but constraint should be inactive)
Reading model...
...model read.
creating competitive generators file...
...competitive generators recorded.
Loading data...
.. day-ahead data with real-time VRE data read.
Compiling instance...
...instance created.
Creating Offer Mitigation (model will solve as dispatch if TRUE)...
Solving...

Welcome to IBM(R) ILOG(R) CPLEX(R) Interactive Optimizer 12.9.0.0
  with Simplex, Mixed Integer & Barrier Optimizers
5725-A06 5725-A29 5724-Y48 5724-Y49 5724-Y54 5724-Y55 5655-Y21
Copyright IBM Corp. 1988, 2019.  All Rights Reserved.

Type 'help' for a list of available commands.
Type 'help' followed by a command name for more
information on commands.

CPLEX> Logfile 'cplex.log' closed.
Logfile 'C:\Users\llavin\Desktop\test919\logs\tmpl0vwr8i4.cplex.log' open.
CPLEX> New value for parallel optimization mode: -1
CPLEX> New value for mixed integer optimality gap tolerance: 0.01
CPLEX> New value for integrality tolerance: 1e-09
CPLEX> New value for feasibility tolerance: 0.01
CPLEX> New value for deterministic time limit in ticks: 75000
CPLEX> Problem 'C:\Users\llavin\Desktop\test919\logs\tmp2dukmh5m.pyomo.lp' read.
Read time = 0.06 sec. (3.04 ticks)
CPLEX> Problem name         : C:\Users\llavin\Desktop\test919\logs\tmp2dukmh5m.pyomo.lp
Objective sense      : Minimize
Variables            :   26081  [Nneg: 1,  Box: 21616,  Free: 4464]
Objective nonzeros   :    2496
Linear constraints   :   27515  [Less: 14006,  Greater: 4416,  Equal: 9093]
  Nonzeros           :   89267
  RHS nonzeros       :   12271

Variables            : Min LB: -5000.000        Max UB: 1000000.       
Objective nonzeros   : Min   : 15.73158         Max   : 124.0997       
Linear constraints   :
  Nonzeros           : Min   : 0.8500000        Max   : 3000.000       
  RHS nonzeros       : Min   : 0.4000000        Max   : 5000.000       
CPLEX> CPXPARAM_Parallel                                -1
CPXPARAM_Simplex_Tolerances_Feasibility          0.01
CPXPARAM_DetTimeLimit                            75000
CPXPARAM_MIP_Tolerances_MIPGap                   0.01
CPXPARAM_MIP_Tolerances_Integrality              1.0000000000000001e-09
Parallel mode: opportunistic, using up to 32 threads for concurrent optimization.
Tried aggregator 1 time.
LP Presolve eliminated 21353 rows and 15463 columns.
Aggregator did 770 substitutions.
Reduced LP has 5392 rows, 9848 columns, and 31812 nonzeros.
Presolve time = 0.06 sec. (30.44 ticks)
Symmetry aggregator did 5563 additional substitutions.

Iteration log . . .
Iteration:     1   Dual objective     =             0.000000
Perturbation started.
Iteration:   101   Dual objective     =             0.000000
Iteration:   331   Dual objective     =             1.128310
Iteration:   582   Dual objective     =             1.659323
Iteration:   841   Dual objective     =             1.796451
Iteration:  1042   Dual objective     =             1.907494
Iteration:  1307   Dual objective     =             1.956814
Iteration:  1557   Dual objective     =             1.988138
Iteration:  1776   Dual objective     =         28668.026281
Iteration:  1988   Dual objective     =        195615.230627
Iteration:  2170   Dual objective     =        229902.003960
Iteration:  2360   Dual objective     =        251518.341631
Iteration:  2625   Dual objective     =        254175.405156
Iteration:  3036   Dual objective     =        258818.331995
Removing perturbation.
Dual superbasis not built.
Using devex.

Primal simplex solved model.


Primal simplex - Optimal:  Objective =  2.5881681009e+05
Solution time =    0.17 sec.  Iterations = 1625 (1006)
Deterministic time = 80.00 ticks  (465.11 ticks/sec)

CPLEX> Solution written to file 'C:\Users\llavin\Desktop\test919\logs\tmpfetytbf3.cplex.sol'.
CPLEX> Exporting results... 
...storage offer mitigation file created
Converting model to MPEC...
...converted
NOTE: initial MIP solve with only storage competitive to get feasible solution
Solving...

Welcome to IBM(R) ILOG(R) CPLEX(R) Interactive Optimizer 12.9.0.0
  with Simplex, Mixed Integer & Barrier Optimizers
5725-A06 5725-A29 5724-Y48 5724-Y49 5724-Y54 5724-Y55 5655-Y21
Copyright IBM Corp. 1988, 2019.  All Rights Reserved.

Type 'help' for a list of available commands.
Type 'help' followed by a command name for more
information on commands.

CPLEX> Logfile 'cplex.log' closed.
Logfile 'C:\Users\llavin\Desktop\test919\logs\tmpwm40d61g.cplex.log' open.
CPLEX> New value for parallel optimization mode: -1
CPLEX> New value for mixed integer optimality gap tolerance: 0.01
CPLEX> New value for integrality tolerance: 1e-09
CPLEX> New value for feasibility tolerance: 0.01
CPLEX> New value for deterministic time limit in ticks: 75000
CPLEX> Problem 'C:\Users\llavin\Desktop\test919\logs\tmptmlhof0l.pyomo.lp' read.
Read time = 0.27 sec. (14.78 ticks)
CPLEX> Problem name         : C:\Users\llavin\Desktop\test919\logs\tmptmlhof0l.pyomo.lp
Objective sense      : Maximize
Variables            :   53805  [Nneg: 1,  Box: 22000,  Free: 4464,
                                 Binary: 27340]
Objective nonzeros   :    8980
Linear constraints   :  123205  [Less: 41346,  Greater: 59096,  Equal: 22763]
  Nonzeros           :  291801
  RHS nonzeros       :   67467

Variables            : Min LB: -5000.000        Max UB: 1000000.       
Objective nonzeros   : Min   : 0.4000000        Max   : 722.0000       
Linear constraints   :
  Nonzeros           : Min   : 0.4000000        Max   : 1000000.       
  RHS nonzeros       : Min   : 0.4000000        Max   : 1000000.       
CPLEX> CPXPARAM_Parallel                                -1
CPXPARAM_Simplex_Tolerances_Feasibility          0.01
CPXPARAM_DetTimeLimit                            75000
CPXPARAM_MIP_Tolerances_MIPGap                   0.01
CPXPARAM_MIP_Tolerances_Integrality              1.0000000000000001e-09
Tried aggregator 3 times.
MIP Presolve eliminated 88622 rows and 18922 columns.
MIP Presolve added 3367 rows and 0 columns.
MIP Presolve modified 24831 coefficients.
Aggregator did 12966 substitutions.
Reduced MIP has 24984 rows, 21361 columns, and 71279 nonzeros.
Reduced MIP has 8418 binaries, 0 generals, 0 SOSs, and 0 indicators.
Presolve time = 0.30 sec. (173.57 ticks)
Probing fixed 390 vars, tightened 2808 bounds.
Probing time = 1.19 sec. (880.76 ticks)
Tried aggregator 2 times.
MIP Presolve eliminated 886 rows and 787 columns.
MIP Presolve modified 2192 coefficients.
Aggregator did 39 substitutions.
Reduced MIP has 24059 rows, 20535 columns, and 68598 nonzeros.
Reduced MIP has 8025 binaries, 0 generals, 0 SOSs, and 0 indicators.
Presolve time = 0.11 sec. (67.78 ticks)
Probing time = 0.05 sec. (15.37 ticks)
Clique table members: 6462.
MIP emphasis: balance optimality and feasibility.
MIP search method: dynamic search.
Parallel mode: opportunistic, using up to 32 threads.
Root relaxation solution time = 0.42 sec. (307.13 ticks)

        Nodes                                         Cuts/
   Node  Left     Objective  IInf  Best Integer    Best Bound    ItCnt     Gap

      0     0     6765.6526  1766                   6765.6526     7103         
      0     0     6765.0411    23                    Cuts: 20     7113         
      0     0     6764.1964    22                    Cuts: 14     7122         
      0     0     6764.1964    22                     Cuts: 7     7125         
      0     0     6764.1964    15                 Flowcuts: 1     7126         
      0     0     6764.1964    14                 Flowcuts: 8     7127         
      0    18    infeasible                           Cuts: 7     7553         
Elapsed time = 8.92 sec. (5304.59 ticks, tree = 0.02 MB, solutions = 0)
    419   220     6315.2485     9                   6686.1791     9016         
    917   546     6121.6919     3                   6686.1791    10492         
   1240   921     5496.8090     4                   6686.1791    12353         
   1422  1010     6188.4314     4                   6686.1791    12640         
   1620  1148    infeasible                         6686.1791    13972         
   1835  1099     5563.5485     3                   6686.1791    13333         
   2026  1167     6177.6132     6                   6686.1791    14035         
   2174  1319     6561.2270     1                   6686.1791    15873         
   2278  1319     6561.2270     1                   6686.1791    15880         
   2693  1502     3916.6226     3                   6686.1791    17184         
Elapsed time = 20.44 sec. (8419.17 ticks, tree = 9.80 MB, solutions = 0)
   2996  1610     6158.9620     3                   6686.1791    17967         
   3229  1673    infeasible                         6686.1791    18262         
   3462  1684    infeasible                         6686.1791    18303         
   3656  1723    infeasible                         6686.1791    18439         
*  3733+ 1150                         6151.4875     6686.1791             8.69%
   3991  1768     6159.7206     4     6151.4875     6686.1791    18597    8.69%
   4335  1461        cutoff           6151.4875     6686.1791    20271    8.69%
*  4898  1441      integral     0     6560.6427     6686.1791    20662    1.91%
   4992   573     6637.8113     8     6560.6427     6686.1791    24388    1.91%
   5773   318     6649.7435     9     6560.6427     6668.6968    26385    1.65%
   6595  1185        cutoff           6560.6427     6668.6968    24002    1.65%
Elapsed time = 38.78 sec. (17422.45 ticks, tree = 6.64 MB, solutions = 5)
   7384   479     6584.8625     4     6560.6427     6661.7692    25698    1.54%
   8028   298        cutoff           6560.6427     6661.7692    26987    1.54%
   8658   342     6585.8196     5     6560.6427     6661.7692    27903    1.54%
   8956   638     6585.6339    10     6560.6427     6661.7692    30151    1.54%

Clique cuts applied:  2
Cover cuts applied:  4
Implied bound cuts applied:  11
Flow cuts applied:  35
Mixed integer rounding cuts applied:  36
Gomory fractional cuts applied:  20

Root node processing (before b&c):
  Real time             =    7.58 sec. (5292.76 ticks)
Parallel b&c, 32 threads:
  Real time             =   39.38 sec. (17495.09 ticks)
  Sync time (average)   =    1.08 sec.
  Wait time (average)   =    0.00 sec.
                          ------------
Total (root+branch&cut) =   46.95 sec. (22787.85 ticks)

Solution pool: 5 solutions saved.

MIP - Integer optimal, tolerance (0.01/1e-06):  Objective =  6.5606427028e+03
Current MIP best bound =  6.6247932953e+03 (gap = 64.1506, 0.98%)
Solution time =   46.98 sec.  Iterations = 109320  Nodes = 8963 (1047)
Deterministic time = 22788.00 ticks  (485.01 ticks/sec)

CPLEX> Incumbent solution written to file 'C:\Users\llavin\Desktop\test919\logs\tmp6x0e7t6e.cplex.sol'.
CPLEX> NOTE: no warmstart specified for MIP iteration, default behavior is true
NOTE: resolving with all competitive generators using storage-only solution to warmstart
Solving...

Welcome to IBM(R) ILOG(R) CPLEX(R) Interactive Optimizer 12.9.0.0
  with Simplex, Mixed Integer & Barrier Optimizers
5725-A06 5725-A29 5724-Y48 5724-Y49 5724-Y54 5724-Y55 5655-Y21
Copyright IBM Corp. 1988, 2019.  All Rights Reserved.

Type 'help' for a list of available commands.
Type 'help' followed by a command name for more
information on commands.

CPLEX> Logfile 'cplex.log' closed.
Logfile 'C:\Users\llavin\Desktop\test919\logs\tmpjqbsec60.cplex.log' open.
CPLEX> New value for parallel optimization mode: -1
CPLEX> New value for mixed integer optimality gap tolerance: 0.01
CPLEX> New value for integrality tolerance: 1e-09
CPLEX> New value for feasibility tolerance: 0.01
CPLEX> New value for deterministic time limit in ticks: 75000
CPLEX> Problem 'C:\Users\llavin\Desktop\test919\logs\tmprmfugcla.pyomo.lp' read.
Read time = 0.27 sec. (14.81 ticks)
CPLEX> MIP start file 'C:\Users\llavin\Desktop\test919\logs\tmpjscwhd3b.cplex.mst' read.
CPLEX> Problem name         : C:\Users\llavin\Desktop\test919\logs\tmprmfugcla.pyomo.lp
Objective sense      : Maximize
Variables            :   54525  [Nneg: 1,  Box: 22720,  Free: 4464,
                                 Binary: 27340]
Objective nonzeros   :    9676
Linear constraints   :  123205  [Less: 41346,  Greater: 59096,  Equal: 22763]
  Nonzeros           :  291801
  RHS nonzeros       :   67467

Variables            : Min LB: -5000.000        Max UB: 1000000.       
Objective nonzeros   : Min   : 0.4000000        Max   : 722.0000       
Linear constraints   :
  Nonzeros           : Min   : 0.4000000        Max   : 1000000.       
  RHS nonzeros       : Min   : 0.4000000        Max   : 1000000.       
CPLEX> CPXPARAM_Parallel                                -1
CPXPARAM_Simplex_Tolerances_Feasibility          0.01
CPXPARAM_DetTimeLimit                            75000
CPXPARAM_MIP_Tolerances_MIPGap                   0.01
CPXPARAM_MIP_Tolerances_Integrality              1.0000000000000001e-09
Warning:  No solution found from 1 MIP starts.
Retaining values of one MIP start for possible repair.
Tried aggregator 3 times.
MIP Presolve eliminated 88622 rows and 19642 columns.
MIP Presolve added 3367 rows and 0 columns.
MIP Presolve modified 24831 coefficients.
Aggregator did 12966 substitutions.
Reduced MIP has 24984 rows, 21361 columns, and 71279 nonzeros.
Reduced MIP has 8418 binaries, 0 generals, 0 SOSs, and 0 indicators.
Presolve time = 0.30 sec. (173.93 ticks)
Probing fixed 390 vars, tightened 2808 bounds.
Probing time = 1.19 sec. (880.76 ticks)
Tried aggregator 2 times.
MIP Presolve eliminated 886 rows and 787 columns.
MIP Presolve modified 2192 coefficients.
Aggregator did 39 substitutions.
Reduced MIP has 24059 rows, 20535 columns, and 68598 nonzeros.
Reduced MIP has 8025 binaries, 0 generals, 0 SOSs, and 0 indicators.
Presolve time = 0.11 sec. (67.79 ticks)
Probing time = 0.05 sec. (15.37 ticks)
Clique table members: 6462.
MIP emphasis: balance optimality and feasibility.
MIP search method: dynamic search.
Parallel mode: opportunistic, using up to 32 threads.
Root relaxation solution time = 0.58 sec. (396.17 ticks)

        Nodes                                         Cuts/
   Node  Left     Objective  IInf  Best Integer    Best Bound    ItCnt     Gap

      0     0    88769.3030  1899                  88769.3030     7773         
      0     0    88610.6038   692                   Cuts: 807     8151         
      0     0    88517.9665   583                   Cuts: 542     8384         
      0     0    88481.3329   486                   Cuts: 361     8517         
      0     0    88350.6585   460                   Cuts: 211     8599         
      0     0    88348.5367   431                   Cuts: 208     8645         
      0     0    88338.9889   420                   Cuts: 114     8666         
      0     0    88338.9889   415                    Cuts: 95     8675         
      0     0    88338.9889   405                    Cuts: 86     8683         
      0     0    88338.9889   405                    Cuts: 84     8688         
Repair heuristic found nothing.
      0     8    87729.1273   382                    Cuts: 13     8864         
Elapsed time = 12.19 sec. (6977.51 ticks, tree = 0.02 MB, solutions = 0)
    531    74    87288.0773   370                  87794.7309     9830         
    909   416    87377.7450   348                  87794.7309    12437         
   1389   802    57085.3772   340                  87794.7309    16944         
   1868  1037    69584.7559   259                  87794.7309    25528         
   2368  1710    83520.8812   286                  87794.7309    40377         
   2986  1987    75541.3214   290                  87794.7309    43690         
   3750  2821    86513.9017   323                  87794.7309    53515         
   4706  2755    28369.4575   229                  87781.7094    50915         
   5599  4409    33657.2314   262                  87781.7094    60827         
   9055  7581    48175.2792   151                  87781.7094    69150         
Elapsed time = 30.64 sec. (10079.03 ticks, tree = 62.95 MB, solutions = 3)
*  9186+ 4810                        68483.3359    87781.7094            28.18%
* 12474  4718      integral     0    75957.0703    87781.7094    74181   15.57%
* 12545  4874      integral     0    84535.8210    87781.7094    74760    3.84%
  12551  2893    infeasible          84535.8210    87760.7719    88138    3.81%
  14086   242    86933.3196   202    84535.8210    87511.8125    89750    3.52%
  14578  1760    85866.9771   200    84535.8210    87511.8125    96159    3.52%
  15647  2124        cutoff          84535.8210    87511.8125    97910    3.52%
  17784  2522    86798.2902   194    84535.8210    87511.8125    99961    3.52%
  20363  3861    85681.4237   192    84535.8210    87418.6092   105987    3.41%
  22972  6416    86284.5611   176    84535.8210    87364.1325   117466    3.35%
Elapsed time = 71.20 sec. (22540.47 ticks, tree = 93.19 MB, solutions = 6)
  24803  6667    85135.9546   163    84535.8210    87364.1325   118850    3.35%
* 25460  7425      integral     0    86531.1564    87364.1325   122961    0.96%
  25464 10030    84714.3111   184    86531.1564    87364.1325   134773    0.96%
  25481  9399        cutoff          86531.1564    87364.1325   131877    0.96%
  25495  9752    85213.1749   184    86531.1564    87364.1325   133554    0.96%

GUB cover cuts applied:  1
Clique cuts applied:  16
Cover cuts applied:  4
Implied bound cuts applied:  13
Flow cuts applied:  348
Mixed integer rounding cuts applied:  35
Gomory fractional cuts applied:  39

Root node processing (before b&c):
  Real time             =   10.14 sec. (6932.87 ticks)
Parallel b&c, 32 threads:
  Real time             =   67.97 sec. (20246.70 ticks)
  Sync time (average)   =    2.22 sec.
  Wait time (average)   =    0.24 sec.
                          ------------
Total (root+branch&cut) =   78.11 sec. (27179.57 ticks)

Solution pool: 7 solutions saved.

MIP - Integer optimal, tolerance (0.01/1e-06):  Objective =  8.6531156411e+04
Current MIP best bound =  8.7364132519e+04 (gap = 832.976, 0.96%)
Solution time =   78.16 sec.  Iterations = 137752  Nodes = 25499 (4711)
Deterministic time = 27179.72 ticks  (347.76 ticks/sec)

CPLEX> Incumbent solution written to file 'C:\Users\llavin\Desktop\test919\logs\tmpgffgeznl.cplex.sol'.
CPLEX> Exporting results... 
